row=10;
column=10;
Board=[|0,0,0,0,0,0,0,0,0,0|0,0,0,0,0,0,0,0,0,0|0,0,0,0,0,0,0,0,0,0|0,1,0,0,0,0,0,0,0,0|0,0,0,0,0,0,0,0,0,0|0,0,0,4,0,0,0,0,0,0|0,1,0,0,0,0,0,6,0,2|0,0,0,0,0,1,0,6,0,0|0,0,0,0,0,0,0,0,0,0|0,0,0,0,0,0,0,0,0,0|];
right = [1,5,1,1,0,4,3,3,1,1];
bottom = [1,4,0,1,3,2,0,5,1,3];
